50
214 930 1712 1284 428 279 837 1926 372 744 1926 651 1284 1070 930 1284 930 837 1284 1284 428 1926 93 279 1070 2140 1070 1498 372 372 2140 214 744 642 428 93 837 744 214 930 465 651 642 1070 372 856 214 1712 642 2140 
481 1700 3848 2886 962 510 1530 4329 680 1360 4329 1190 2886 2405 1700 2886 1700 1530 2886 2886 962 4329 170 510 2405 4810 2405 3367 680 680 4810 481 1360 1443 962 170 1530 1360 481 1700 850 1190 1443 2405 680 1924 481 3848 1443 4810 
22378
